SDVRP instances/custom_instances/p01_21_split0.vrp
NAME:p01_21_split
BEST_KNOWN: 0
COMMENT: 0
DIMENSION: 198
CAPACITY: 160
EDGE_WEIGHT_FORMAT: FUNCTION
EDGE_WEIGHT_TYPE: EXACT_2D
NODE_COORD_SECTION
1 0.00000 0.00000
2 -32 -31
3 -32 -31
4 -32 -31
5 -6 -48
6 -6 -48
7 -6 -48
8 -6 -48
9 -46 -41
10 -46 -41
11 -46 -41
12 -46 -41
13 -46 -41
14 -46 -41
15 -46 -41
16 35 23
17 35 23
18 35 23
19 35 23
20 33 47
21 33 47
22 33 47
23 -9 17
24 -9 17
25 -9 17
26 -9 17
27 -9 17
28 -17 9
29 -17 9
30 -17 9
31 -17 9
32 -17 9
33 -17 9
34 -17 9
35 -37 5
36 -37 5
37 27 35
38 27 35
39 27 35
40 27 35
41 27 35
42 49 49
43 49 49
44 49 49
45 49 49
46 -39 39
47 -39 39
48 -39 39
49 -39 39
50 50 13
51 50 13
52 -33 -14
53 -33 -14
54 -33 -14
55 -33 -14
56 -14 -4
57 -14 -4
58 -14 -4
59 -15 11
60 -15 11
61 -15 11
62 29 28
63 29 28
64 29 28
65 -16 24
66 -16 24
67 44 -47
68 44 -47
69 44 -47
70 -13 -39
71 -13 -39
72 41 -47
73 41 -47
74 41 -47
75 12 3
76 12 3
77 12 3
78 -5 -7
79 -5 -7
80 -5 -7
81 -5 -7
82 -5 -7
83 6 -12
84 6 -12
85 6 -12
86 6 -12
87 4 -38
88 4 -38
89 4 -38
90 4 -38
91 4 -38
92 -40 -43
93 -40 -43
94 -40 -43
95 50 -32
96 50 -32
97 50 -32
98 -29 36
99 -29 36
100 -29 36
101 -29 36
102 -29 36
103 -31 -46
104 -31 -46
105 32 -22
106 32 -22
107 32 -22
108 31 -50
109 31 -50
110 31 -50
111 6 29
112 6 29
113 6 29
114 -8 -3
115 -8 -3
116 -8 -3
117 -8 -3
118 -8 -3
119 -3 -30
120 -3 -30
121 -3 -30
122 -3 -30
123 34 15
124 34 15
125 34 15
126 12 -33
127 12 -33
128 12 -33
129 12 -33
130 12 -33
131 12 -33
132 37 -1
133 37 -1
134 37 -1
135 37 -1
136 37 -1
137 -7 32
138 -7 32
139 -7 32
140 -27 -27
141 -27 -27
142 -27 -27
143 -27 -27
144 -27 -27
145 21 8
146 21 8
147 21 8
148 21 8
149 21 8
150 -47 2
151 -47 2
152 -47 2
153 -47 2
154 -12 21
155 -12 21
156 -12 21
157 -12 21
158 -12 21
159 32 -44
160 32 -44
161 32 -44
162 32 -44
163 13 33
164 13 33
165 13 33
166 13 33
167 13 33
168 9 -43
169 9 -43
170 9 -43
171 9 -43
172 9 -43
173 9 -43
174 17 -2
175 17 -2
176 17 -2
177 17 -2
178 -23 -15
179 -23 -15
180 -23 -15
181 -23 -15
182 -23 -15
183 -3 -18
184 8 -8
185 8 -8
186 8 -8
187 8 -8
188 8 -8
189 8 -8
190 8 -8
191 -36 -23
192 -36 -23
193 -36 -23
194 -36 -23
195 -36 -23
196 -36 -23
197 8 -49
198 8 -49
DEMAND_SECTION
1 0
2 32
3 2
4 1
5 32
6 2
7 2
8 1
9 32
10 16
11 8
12 2
13 2
14 2
15 1
16 16
17 2
18 2
19 2
20 32
21 32
22 1
23 32
24 2
25 2
26 2
27 1
28 32
29 32
30 8
31 2
32 2
33 2
34 1
35 32
36 2
37 16
38 2
39 2
40 2
41 1
42 16
43 2
44 2
45 2
46 16
47 8
48 2
49 2
50 32
51 2
52 32
53 16
54 8
55 1
56 32
57 32
58 1
59 32
60 2
61 2
62 32
63 32
64 16
65 32
66 1
67 32
68 16
69 8
70 32
71 8
72 32
73 8
74 1
75 32
76 32
77 2
78 32
79 32
80 2
81 2
82 2
83 32
84 16
85 8
86 1
87 16
88 8
89 2
90 2
91 2
92 16
93 8
94 2
95 32
96 8
97 2
98 32
99 32
100 2
101 2
102 2
103 32
104 8
105 32
106 32
107 2
108 32
109 32
110 1
111 32
112 8
113 1
114 32
115 8
116 2
117 2
118 1
119 16
120 2
121 2
122 2
123 32
124 2
125 2
126 32
127 16
128 2
129 2
130 2
131 1
132 32
133 16
134 2
135 2
136 2
137 32
138 2
139 1
140 32
141 32
142 2
143 2
144 1
145 32
146 32
147 8
148 2
149 1
150 16
151 2
152 2
153 2
154 16
155 8
156 2
157 2
158 2
159 32
160 16
161 2
162 2
163 32
164 32
165 8
166 2
167 1
168 32
169 16
170 8
171 2
172 2
173 1
174 16
175 2
176 2
177 1
178 32
179 32
180 8
181 2
182 2
183 32
184 32
185 16
186 8
187 2
188 2
189 2
190 1
191 32
192 32
193 8
194 2
195 2
196 2
197 32
198 2
DEPOT_SECTION
1
-1
EOF