SDVRP instances/custom_instances/p01_21_split0.sol
197 -26 25 23 22 24 155 138 136 137 112 111 110 165 166 164 162 -35 34 152 151 149 150 54 52 53 51 178 179 181 -46 48 45 47 98 101 100 97 99 65 64 153 156 154 157 -56 57 55 78 77 81 80 79 -59 58 60 29 33 27 30 32 31 28 113 114 116 117 115 -62 61 16 18 15 17 49 50 122 123 124 -63 41 42 44 43 19 21 20 40 39 38 36 37 163 -70 69 102 103 7 4 5 6 118 120 119 121 -74 75 76 147 146 144 148 145 -82 84 83 85 185 186 184 187 188 183 189 -93 91 92 13 11 8 10 9 12 14 1 3 2 143 142 139 -95 94 96 67 66 68 72 71 73 159 -105 104 106 135 134 133 131 132 173 175 176 174 -127 130 125 129 126 128 108 107 109 160 161 158 -141 140 193 191 194 195 192 190 180 177 -172 170 169 168 171 167 197 196 88 90 89 87 86 182 0 





OBJ=
1545.800
BEST_KNOWN=
0.000